NAME: instance_2300
TYPE: TSP
DIMENSION: 20
EDGE_WEIGHT_TYPE: EUC_2D
NODE_COORD_SECTION
0 29.17 49.75
1 46.29 89.99
2 35.99 27.74
3 14.15 46.16
4 63.50 72.74
5 70.05 41.24
6 31.59 43.69
7 17.21 76.76
8 4.05 57.43
9 51.97 25.93
10 25.07 97.27
11 30.17 41.68
12 29.40 46.02
13 53.45 80.78
14 43.79 20.87
15 56.31 42.80
16 44.91 15.02
17 73.46 24.41
18 85.18 73.17
19 74.00 11.11
EOF
